Maximize
  - 0.672336843887 edge_0_3_0_0 - 3.308364668135 edge_0_4_0_0
   - 3.106188155056 edge_0_5_0_0 - 2.9942097723648 edge_0_6_0_0
   - 3.654157584855 edge_0_10_0_0 - 2.4874738886921 edge_0_16_0_0
   + 0.3254862718492135 edge_3_4_0_0 + 0.5833085024683246 edge_3_5_0_0
   + 1.042436522447867 edge_3_6_0_0 + 0.3120828257933371 edge_3_8_0_0
   + 0.0835602311623454 edge_3_9_0_0 + 0.5836856340743906 edge_3_10_0_0
   + 0.4346962799844243 edge_3_16_0_0 - 0.0979176180604737 edge_3_18_0_0
   - 0.0722629601935094 edge_3_19_0_0 + 0.3082018278076007 edge_3_20_0_0
   + 0.4128136177489157 edge_3_25_0_0 + 0.3313614773768108 edge_3_26_0_0
   - 0.1778553739712725 edge_3_28_0_0 + 1.914939200507897 edge_3_42_0_0
   + 0.8749640589060995 edge_4_3_0_0 + 1.081817729183927 edge_4_5_0_0
   + 0.5785759936207709 edge_4_6_0_0 - 0.00836253355765559 edge_4_8_0_0
   + 0.1486413389646382 edge_4_9_0_0 + 1.327057396513718 edge_4_10_0_0
   + 0.3433190776854328 edge_4_16_0_0 - 0.8023222695800891 edge_4_18_0_0
   - 0.9995380151439803 edge_4_25_0_0 - 1.523210883828702 edge_4_28_0_0
   + 0.0452132337254297 edge_4_35_0_0 + 1.848563499764385 edge_4_42_0_0
   + 0.5555872998274483 edge_5_3_0_0 + 0.2158294598974756 edge_5_4_0_0
   + 0.0138678581647016 edge_5_6_0_0 - 0.2616303774586931 edge_5_8_0_0
   + 0.3527317073301282 edge_5_10_0_0 - 0.0377974194930834 edge_5_16_0_0
   + 0.4491067955448585 edge_6_3_0_0 - 0.8339987569328134 edge_6_4_0_0
   + 0.0559972684999296 edge_6_5_0_0 + 0.019432903593209 edge_6_8_0_0
   + 0.0564585090645601 edge_6_10_0_0 - 0.0108048372220797 edge_8_3_0_0
   - 0.8457292791035609 edge_8_4_0_0 - 0.3725659267329769 edge_8_5_0_0
   - 0.2305041627901342 edge_8_6_0_0 + 0.3525907119691377 edge_8_9_0_0
   + 0.7605529193135119 edge_8_10_0_0 + 0.4268067340818865 edge_8_16_0_0
   - 0.1152456260184335 edge_8_18_0_0 - 0.0876001298118642 edge_8_19_0_0
   - 0.3201638333405636 edge_8_20_0_0 + 0.0140785793486152 edge_8_25_0_0
   - 0.9957721959073388 edge_8_29_0_0 + 1.205908375435704 edge_8_42_0_0
   - 0.0758115357068704 edge_9_3_0_0 + 0.153384739766359 edge_9_8_0_0
   + 0.2964918117666432 edge_9_16_0_0 - 0.0803449039694329 edge_10_3_0_0
   - 0.5741166717436768 edge_10_4_0_0 + 0.1418457445130812 edge_10_5_0_0
   + 0.4131784091968506 edge_10_6_0_0 + 0.6178602294758229 edge_10_8_0_0
   + 1.705531203286063 edge_10_9_0_0 + 2.364017331487789 edge_10_16_0_0
   + 0.5274839558494092 edge_10_18_0_0 + 0.4559908227864428 edge_10_19_0_0
   + 0.5263486943189173 edge_10_20_0_0 + 0.5856564314354894 edge_10_25_0_0
   + 0.4942828934828892 edge_10_26_0_0 - 0.3926442763902525 edge_10_28_0_0
   - 0.589964172767825 edge_10_35_0_0 + 3.255562783561927 edge_10_42_0_0
   - 0.5960263554177316 edge_16_4_0_0 - 1.118427423445506 edge_16_5_0_0
   - 0.418752828316507 edge_16_6_0_0 - 0.2150843050537577 edge_16_8_0_0
   + 0.6466909280126448 edge_16_9_0_0 + 0.4508431330099471 edge_16_10_0_0
   + 0.6068966026411795 edge_16_18_0_0 + 0.708405471890975 edge_16_19_0_0
   + 0.2050048846766382 edge_16_20_0_0 - 0.8892183385831435 edge_16_23_0_0
   + 1.067935474022602 edge_16_25_0_0 + 1.029607471244957 edge_16_26_0_0
   - 0.2076100669122828 edge_16_28_0_0 - 0.7696564820662678 edge_16_29_0_0
   - 0.3279916185362548 edge_16_35_0_0 + 2.065747852831305 edge_16_42_0_0
   - 0.1626769927859721 edge_18_9_0_0 + 0.1462214574795734 edge_18_19_0_0
   + 0.046728248978283 edge_18_20_0_0 - 1.455892977798368 edge_18_23_0_0
   - 0.0769252157289593 edge_18_25_0_0 - 1.209062109266443 edge_18_29_0_0
   + 0.4864135650973558 edge_18_42_0_0 + 0.08930537463643 edge_19_3_0_0
   - 0.2929658431425862 edge_19_4_0_0 + 0.8503313000099229 edge_19_5_0_0
   + 0.8634070434466917 edge_19_6_0_0 + 0.3300924314402403 edge_19_8_0_0
   + 0.5197681277210183 edge_19_9_0_0 + 0.5894805777766865 edge_19_10_0_0
   + 0.6007177835746436 edge_19_16_0_0 + 2.67932558997187 edge_19_18_0_0
   + 1.045558055135632 edge_19_20_0_0 - 0.9553214145112618 edge_19_23_0_0
   + 0.1919686604679177 edge_19_25_0_0 + 0.1084562126530454 edge_19_26_0_0
   - 0.1122822337300759 edge_19_28_0_0 - 0.7592217070022423 edge_19_29_0_0
   - 0.244083112442683 edge_19_35_0_0 + 0.8926331027274581 edge_19_42_0_0
   - 0.5724984669504236 edge_20_18_0_0 - 0.155701151512277 edge_20_19_0_0
   + 0.2916641512056223 edge_23_25_0_0 + 0.110351670206012 edge_23_26_0_0
   - 0.6971766407424375 edge_23_28_0_0 + 0.1387654197033103 edge_23_29_0_0
   + 0.0898021815081806 edge_23_35_0_0 - 1.728968766121141 edge_25_18_0_0
   - 1.724826914999871 edge_25_19_0_0 - 0.948011617748273 edge_25_20_0_0
   + 0.0229108595147883 edge_25_23_0_0 + 0.3669623165906008 edge_25_26_0_0
   + 0.3632703246260477 edge_25_28_0_0 + 1.473634672201433 edge_25_29_0_0
   + 0.1009835268870357 edge_25_35_0_0 + 0.6423453564752859 edge_25_42_0_0
   - 0.3166802175911744 edge_26_23_0_0 + 0.1127290225144648 edge_26_25_0_0
   - 0.2230914032033778 edge_26_35_0_0 - 0.7400988820321227 edge_28_23_0_0
   + 0.3180189746123626 edge_28_29_0_0 - 0.1144386972306648 edge_29_23_0_0
   + 0.0709541452026637 edge_29_26_0_0 + 1.397838675406882 edge_29_28_0_0
   - 0.0222270537861881 edge_29_35_0_0 + 0.3789315531858095 edge_29_42_0_0
   + 0.00718071795462101 edge_35_23_0_0 + 0.0849492920193821 edge_35_26_0_0
   - 0.666675661767208 edge_42_29_0_0
Subject To
 one_parent_1: = 1
 consume_one_flow_unit_1: = 1
 one_parent_2: = 1
 consume_one_flow_unit_2: = 1
 one_parent_3: edge_0_3_0_0 + edge_4_3_0_0 + edge_5_3_0_0 + edge_6_3_0_0
   + edge_8_3_0_0 + edge_9_3_0_0 + edge_10_3_0_0 + edge_19_3_0_0 = 1
 consume_one_flow_unit_3: flow_0_3_0_0 - flow_3_4_0_0 - flow_3_5_0_0
   - flow_3_6_0_0 - flow_3_8_0_0 - flow_3_9_0_0 - flow_3_10_0_0
   - flow_3_16_0_0 - flow_3_18_0_0 - flow_3_19_0_0 - flow_3_20_0_0
   - flow_3_25_0_0 - flow_3_26_0_0 - flow_3_28_0_0 - flow_3_42_0_0
   + flow_4_3_0_0 + flow_5_3_0_0 + flow_6_3_0_0 + flow_8_3_0_0
   + flow_9_3_0_0 + flow_10_3_0_0 + flow_19_3_0_0 = 1
 one_parent_4: edge_0_4_0_0 + edge_3_4_0_0 + edge_5_4_0_0 + edge_6_4_0_0
   + edge_8_4_0_0 + edge_10_4_0_0 + edge_16_4_0_0 + edge_19_4_0_0 = 1
 consume_one_flow_unit_4: flow_0_4_0_0 + flow_3_4_0_0 - flow_4_3_0_0
   - flow_4_5_0_0 - flow_4_6_0_0 - flow_4_8_0_0 - flow_4_9_0_0
   - flow_4_10_0_0 - flow_4_16_0_0 - flow_4_18_0_0 - flow_4_25_0_0
   - flow_4_28_0_0 - flow_4_35_0_0 - flow_4_42_0_0 + flow_5_4_0_0
   + flow_6_4_0_0 + flow_8_4_0_0 + flow_10_4_0_0 + flow_16_4_0_0
   + flow_19_4_0_0 = 1
 one_parent_5: edge_0_5_0_0 + edge_3_5_0_0 + edge_4_5_0_0 + edge_6_5_0_0
   + edge_8_5_0_0 + edge_10_5_0_0 + edge_16_5_0_0 + edge_19_5_0_0 = 1
 consume_one_flow_unit_5: flow_0_5_0_0 + flow_3_5_0_0 + flow_4_5_0_0
   - flow_5_3_0_0 - flow_5_4_0_0 - flow_5_6_0_0 - flow_5_8_0_0
   - flow_5_10_0_0 - flow_5_16_0_0 + flow_6_5_0_0 + flow_8_5_0_0
   + flow_10_5_0_0 + flow_16_5_0_0 + flow_19_5_0_0 = 1
 one_parent_6: edge_0_6_0_0 + edge_3_6_0_0 + edge_4_6_0_0 + edge_5_6_0_0
   + edge_8_6_0_0 + edge_10_6_0_0 + edge_16_6_0_0 + edge_19_6_0_0 = 1
 consume_one_flow_unit_6: flow_0_6_0_0 + flow_3_6_0_0 + flow_4_6_0_0
   + flow_5_6_0_0 - flow_6_3_0_0 - flow_6_4_0_0 - flow_6_5_0_0
   - flow_6_8_0_0 - flow_6_10_0_0 + flow_8_6_0_0 + flow_10_6_0_0
   + flow_16_6_0_0 + flow_19_6_0_0 = 1
 one_parent_7: = 1
 consume_one_flow_unit_7: = 1
 one_parent_8: edge_3_8_0_0 + edge_4_8_0_0 + edge_5_8_0_0 + edge_6_8_0_0
   + edge_9_8_0_0 + edge_10_8_0_0 + edge_16_8_0_0 + edge_19_8_0_0 = 1
 consume_one_flow_unit_8: flow_3_8_0_0 + flow_4_8_0_0 + flow_5_8_0_0
   + flow_6_8_0_0 - flow_8_3_0_0 - flow_8_4_0_0 - flow_8_5_0_0
   - flow_8_6_0_0 - flow_8_9_0_0 - flow_8_10_0_0 - flow_8_16_0_0
   - flow_8_18_0_0 - flow_8_19_0_0 - flow_8_20_0_0 - flow_8_25_0_0
   - flow_8_29_0_0 - flow_8_42_0_0 + flow_9_8_0_0 + flow_10_8_0_0
   + flow_16_8_0_0 + flow_19_8_0_0 = 1
 one_parent_9: edge_3_9_0_0 + edge_4_9_0_0 + edge_8_9_0_0 + edge_10_9_0_0
   + edge_16_9_0_0 + edge_18_9_0_0 + edge_19_9_0_0 = 1
 consume_one_flow_unit_9: flow_3_9_0_0 + flow_4_9_0_0 + flow_8_9_0_0
   - flow_9_3_0_0 - flow_9_8_0_0 - flow_9_16_0_0 + flow_10_9_0_0
   + flow_16_9_0_0 + flow_18_9_0_0 + flow_19_9_0_0 = 1
 one_parent_10: edge_0_10_0_0 + edge_3_10_0_0 + edge_4_10_0_0
   + edge_5_10_0_0 + edge_6_10_0_0 + edge_8_10_0_0 + edge_16_10_0_0
   + edge_19_10_0_0 = 1
 consume_one_flow_unit_10: flow_0_10_0_0 + flow_3_10_0_0 + flow_4_10_0_0
   + flow_5_10_0_0 + flow_6_10_0_0 + flow_8_10_0_0 - flow_10_3_0_0
   - flow_10_4_0_0 - flow_10_5_0_0 - flow_10_6_0_0 - flow_10_8_0_0
   - flow_10_9_0_0 - flow_10_16_0_0 - flow_10_18_0_0 - flow_10_19_0_0
   - flow_10_20_0_0 - flow_10_25_0_0 - flow_10_26_0_0 - flow_10_28_0_0
   - flow_10_35_0_0 - flow_10_42_0_0 + flow_16_10_0_0 + flow_19_10_0_0 = 1
 one_parent_11: = 1
 consume_one_flow_unit_11: = 1
 one_parent_12: = 1
 consume_one_flow_unit_12: = 1
 one_parent_13: = 1
 consume_one_flow_unit_13: = 1
 one_parent_14: = 1
 consume_one_flow_unit_14: = 1
 one_parent_15: = 1
 consume_one_flow_unit_15: = 1
 one_parent_16: edge_0_16_0_0 + edge_3_16_0_0 + edge_4_16_0_0
   + edge_5_16_0_0 + edge_8_16_0_0 + edge_9_16_0_0 + edge_10_16_0_0
   + edge_19_16_0_0 = 1
 consume_one_flow_unit_16: flow_0_16_0_0 + flow_3_16_0_0 + flow_4_16_0_0
   + flow_5_16_0_0 + flow_8_16_0_0 + flow_9_16_0_0 + flow_10_16_0_0
   - flow_16_4_0_0 - flow_16_5_0_0 - flow_16_6_0_0 - flow_16_8_0_0
   - flow_16_9_0_0 - flow_16_10_0_0 - flow_16_18_0_0 - flow_16_19_0_0
   - flow_16_20_0_0 - flow_16_23_0_0 - flow_16_25_0_0 - flow_16_26_0_0
   - flow_16_28_0_0 - flow_16_29_0_0 - flow_16_35_0_0 - flow_16_42_0_0
   + flow_19_16_0_0 = 1
 one_parent_17: = 1
 consume_one_flow_unit_17: = 1
 one_parent_18: edge_3_18_0_0 + edge_4_18_0_0 + edge_8_18_0_0
   + edge_10_18_0_0 + edge_16_18_0_0 + edge_19_18_0_0 + edge_20_18_0_0
   + edge_25_18_0_0 = 1
 consume_one_flow_unit_18: flow_3_18_0_0 + flow_4_18_0_0 + flow_8_18_0_0
   + flow_10_18_0_0 + flow_16_18_0_0 - flow_18_9_0_0 - flow_18_19_0_0
   - flow_18_20_0_0 - flow_18_23_0_0 - flow_18_25_0_0 - flow_18_29_0_0
   - flow_18_42_0_0 + flow_19_18_0_0 + flow_20_18_0_0 + flow_25_18_0_0 = 1
 one_parent_19: edge_3_19_0_0 + edge_8_19_0_0 + edge_10_19_0_0
   + edge_16_19_0_0 + edge_18_19_0_0 + edge_20_19_0_0 + edge_25_19_0_0 = 1
 consume_one_flow_unit_19: flow_3_19_0_0 + flow_8_19_0_0 + flow_10_19_0_0
   + flow_16_19_0_0 + flow_18_19_0_0 - flow_19_3_0_0 - flow_19_4_0_0
   - flow_19_5_0_0 - flow_19_6_0_0 - flow_19_8_0_0 - flow_19_9_0_0
   - flow_19_10_0_0 - flow_19_16_0_0 - flow_19_18_0_0 - flow_19_20_0_0
   - flow_19_23_0_0 - flow_19_25_0_0 - flow_19_26_0_0 - flow_19_28_0_0
   - flow_19_29_0_0 - flow_19_35_0_0 - flow_19_42_0_0 + flow_20_19_0_0
   + flow_25_19_0_0 = 1
 one_parent_20: edge_3_20_0_0 + edge_8_20_0_0 + edge_10_20_0_0
   + edge_16_20_0_0 + edge_18_20_0_0 + edge_19_20_0_0 + edge_25_20_0_0 = 1
 consume_one_flow_unit_20: flow_3_20_0_0 + flow_8_20_0_0 + flow_10_20_0_0
   + flow_16_20_0_0 + flow_18_20_0_0 + flow_19_20_0_0 - flow_20_18_0_0
   - flow_20_19_0_0 + flow_25_20_0_0 = 1
 one_parent_21: = 1
 consume_one_flow_unit_21: = 1
 one_parent_22: = 1
 consume_one_flow_unit_22: = 1
 one_parent_23: edge_16_23_0_0 + edge_18_23_0_0 + edge_19_23_0_0
   + edge_25_23_0_0 + edge_26_23_0_0 + edge_28_23_0_0 + edge_29_23_0_0
   + edge_35_23_0_0 = 1
 consume_one_flow_unit_23: flow_16_23_0_0 + flow_18_23_0_0 + flow_19_23_0_0
   - flow_23_25_0_0 - flow_23_26_0_0 - flow_23_28_0_0 - flow_23_29_0_0
   - flow_23_35_0_0 + flow_25_23_0_0 + flow_26_23_0_0 + flow_28_23_0_0
   + flow_29_23_0_0 + flow_35_23_0_0 = 1
 one_parent_24: = 1
 consume_one_flow_unit_24: = 1
 one_parent_25: edge_3_25_0_0 + edge_4_25_0_0 + edge_8_25_0_0
   + edge_10_25_0_0 + edge_16_25_0_0 + edge_18_25_0_0 + edge_19_25_0_0
   + edge_23_25_0_0 + edge_26_25_0_0 = 1
 consume_one_flow_unit_25: flow_3_25_0_0 + flow_4_25_0_0 + flow_8_25_0_0
   + flow_10_25_0_0 + flow_16_25_0_0 + flow_18_25_0_0 + flow_19_25_0_0
   + flow_23_25_0_0 - flow_25_18_0_0 - flow_25_19_0_0 - flow_25_20_0_0
   - flow_25_23_0_0 - flow_25_26_0_0 - flow_25_28_0_0 - flow_25_29_0_0
   - flow_25_35_0_0 - flow_25_42_0_0 + flow_26_25_0_0 = 1
 one_parent_26: edge_3_26_0_0 + edge_10_26_0_0 + edge_16_26_0_0
   + edge_19_26_0_0 + edge_23_26_0_0 + edge_25_26_0_0 + edge_29_26_0_0
   + edge_35_26_0_0 = 1
 consume_one_flow_unit_26: flow_3_26_0_0 + flow_10_26_0_0 + flow_16_26_0_0
   + flow_19_26_0_0 + flow_23_26_0_0 + flow_25_26_0_0 - flow_26_23_0_0
   - flow_26_25_0_0 - flow_26_35_0_0 + flow_29_26_0_0 + flow_35_26_0_0 = 1
 one_parent_27: = 1
 consume_one_flow_unit_27: = 1
 one_parent_28: edge_3_28_0_0 + edge_4_28_0_0 + edge_10_28_0_0
   + edge_16_28_0_0 + edge_19_28_0_0 + edge_23_28_0_0 + edge_25_28_0_0
   + edge_29_28_0_0 = 1
 consume_one_flow_unit_28: flow_3_28_0_0 + flow_4_28_0_0 + flow_10_28_0_0
   + flow_16_28_0_0 + flow_19_28_0_0 + flow_23_28_0_0 + flow_25_28_0_0
   - flow_28_23_0_0 - flow_28_29_0_0 + flow_29_28_0_0 = 1
 one_parent_29: edge_8_29_0_0 + edge_16_29_0_0 + edge_18_29_0_0
   + edge_19_29_0_0 + edge_23_29_0_0 + edge_25_29_0_0 + edge_28_29_0_0
   + edge_42_29_0_0 = 1
 consume_one_flow_unit_29: flow_8_29_0_0 + flow_16_29_0_0 + flow_18_29_0_0
   + flow_19_29_0_0 + flow_23_29_0_0 + flow_25_29_0_0 + flow_28_29_0_0
   - flow_29_23_0_0 - flow_29_26_0_0 - flow_29_28_0_0 - flow_29_35_0_0
   - flow_29_42_0_0 + flow_42_29_0_0 = 1
 one_parent_30: = 1
 consume_one_flow_unit_30: = 1
 one_parent_31: = 1
 consume_one_flow_unit_31: = 1
 one_parent_32: = 1
 consume_one_flow_unit_32: = 1
 one_parent_33: = 1
 consume_one_flow_unit_33: = 1
 one_parent_34: = 1
 consume_one_flow_unit_34: = 1
 one_parent_35: edge_4_35_0_0 + edge_10_35_0_0 + edge_16_35_0_0
   + edge_19_35_0_0 + edge_23_35_0_0 + edge_25_35_0_0 + edge_26_35_0_0
   + edge_29_35_0_0 = 1
 consume_one_flow_unit_35: flow_4_35_0_0 + flow_10_35_0_0 + flow_16_35_0_0
   + flow_19_35_0_0 + flow_23_35_0_0 + flow_25_35_0_0 + flow_26_35_0_0
   + flow_29_35_0_0 - flow_35_23_0_0 - flow_35_26_0_0 = 1
 one_parent_36: = 1
 consume_one_flow_unit_36: = 1
 one_parent_37: = 1
 consume_one_flow_unit_37: = 1
 one_parent_38: = 1
 consume_one_flow_unit_38: = 1
 one_parent_39: = 1
 consume_one_flow_unit_39: = 1
 one_parent_40: = 1
 consume_one_flow_unit_40: = 1
 one_parent_41: = 1
 consume_one_flow_unit_41: = 1
 one_parent_42: edge_3_42_0_0 + edge_4_42_0_0 + edge_8_42_0_0
   + edge_10_42_0_0 + edge_16_42_0_0 + edge_18_42_0_0 + edge_19_42_0_0
   + edge_25_42_0_0 + edge_29_42_0_0 = 1
 consume_one_flow_unit_42: flow_3_42_0_0 + flow_4_42_0_0 + flow_8_42_0_0
   + flow_10_42_0_0 + flow_16_42_0_0 + flow_18_42_0_0 + flow_19_42_0_0
   + flow_25_42_0_0 + flow_29_42_0_0 - flow_42_29_0_0 = 1
 root_flow: flow_0_3_0_0 + flow_0_4_0_0 + flow_0_5_0_0 + flow_0_6_0_0
   + flow_0_10_0_0 + flow_0_16_0_0 = 42
 inactive_no_flow_0_3_0_0: flow_0_3_0_0 - 1000 edge_0_3_0_0 <= 0
 inactive_no_flow_0_4_0_0: flow_0_4_0_0 - 1000 edge_0_4_0_0 <= 0
 inactive_no_flow_0_5_0_0: flow_0_5_0_0 - 1000 edge_0_5_0_0 <= 0
 inactive_no_flow_0_6_0_0: flow_0_6_0_0 - 1000 edge_0_6_0_0 <= 0
 inactive_no_flow_0_10_0_0: flow_0_10_0_0 - 1000 edge_0_10_0_0 <= 0
 inactive_no_flow_0_16_0_0: flow_0_16_0_0 - 1000 edge_0_16_0_0 <= 0
 inactive_no_flow_3_4_0_0: flow_3_4_0_0 - 1000 edge_3_4_0_0 <= 0
 inactive_no_flow_3_5_0_0: flow_3_5_0_0 - 1000 edge_3_5_0_0 <= 0
 inactive_no_flow_3_6_0_0: flow_3_6_0_0 - 1000 edge_3_6_0_0 <= 0
 inactive_no_flow_3_8_0_0: flow_3_8_0_0 - 1000 edge_3_8_0_0 <= 0
 inactive_no_flow_3_9_0_0: flow_3_9_0_0 - 1000 edge_3_9_0_0 <= 0
 inactive_no_flow_3_10_0_0: flow_3_10_0_0 - 1000 edge_3_10_0_0 <= 0
 inactive_no_flow_3_16_0_0: flow_3_16_0_0 - 1000 edge_3_16_0_0 <= 0
 inactive_no_flow_3_18_0_0: flow_3_18_0_0 - 1000 edge_3_18_0_0 <= 0
 inactive_no_flow_3_19_0_0: flow_3_19_0_0 - 1000 edge_3_19_0_0 <= 0
 inactive_no_flow_3_20_0_0: flow_3_20_0_0 - 1000 edge_3_20_0_0 <= 0
 inactive_no_flow_3_25_0_0: flow_3_25_0_0 - 1000 edge_3_25_0_0 <= 0
 inactive_no_flow_3_26_0_0: flow_3_26_0_0 - 1000 edge_3_26_0_0 <= 0
 inactive_no_flow_3_28_0_0: flow_3_28_0_0 - 1000 edge_3_28_0_0 <= 0
 inactive_no_flow_3_42_0_0: flow_3_42_0_0 - 1000 edge_3_42_0_0 <= 0
 inactive_no_flow_4_3_0_0: flow_4_3_0_0 - 1000 edge_4_3_0_0 <= 0
 inactive_no_flow_4_5_0_0: flow_4_5_0_0 - 1000 edge_4_5_0_0 <= 0
 inactive_no_flow_4_6_0_0: flow_4_6_0_0 - 1000 edge_4_6_0_0 <= 0
 inactive_no_flow_4_8_0_0: flow_4_8_0_0 - 1000 edge_4_8_0_0 <= 0
 inactive_no_flow_4_9_0_0: flow_4_9_0_0 - 1000 edge_4_9_0_0 <= 0
 inactive_no_flow_4_10_0_0: flow_4_10_0_0 - 1000 edge_4_10_0_0 <= 0
 inactive_no_flow_4_16_0_0: flow_4_16_0_0 - 1000 edge_4_16_0_0 <= 0
 inactive_no_flow_4_18_0_0: flow_4_18_0_0 - 1000 edge_4_18_0_0 <= 0
 inactive_no_flow_4_25_0_0: flow_4_25_0_0 - 1000 edge_4_25_0_0 <= 0
 inactive_no_flow_4_28_0_0: flow_4_28_0_0 - 1000 edge_4_28_0_0 <= 0
 inactive_no_flow_4_35_0_0: flow_4_35_0_0 - 1000 edge_4_35_0_0 <= 0
 inactive_no_flow_4_42_0_0: flow_4_42_0_0 - 1000 edge_4_42_0_0 <= 0
 inactive_no_flow_5_3_0_0: flow_5_3_0_0 - 1000 edge_5_3_0_0 <= 0
 inactive_no_flow_5_4_0_0: flow_5_4_0_0 - 1000 edge_5_4_0_0 <= 0
 inactive_no_flow_5_6_0_0: flow_5_6_0_0 - 1000 edge_5_6_0_0 <= 0
 inactive_no_flow_5_8_0_0: flow_5_8_0_0 - 1000 edge_5_8_0_0 <= 0
 inactive_no_flow_5_10_0_0: flow_5_10_0_0 - 1000 edge_5_10_0_0 <= 0
 inactive_no_flow_5_16_0_0: flow_5_16_0_0 - 1000 edge_5_16_0_0 <= 0
 inactive_no_flow_6_3_0_0: flow_6_3_0_0 - 1000 edge_6_3_0_0 <= 0
 inactive_no_flow_6_4_0_0: flow_6_4_0_0 - 1000 edge_6_4_0_0 <= 0
 inactive_no_flow_6_5_0_0: flow_6_5_0_0 - 1000 edge_6_5_0_0 <= 0
 inactive_no_flow_6_8_0_0: flow_6_8_0_0 - 1000 edge_6_8_0_0 <= 0
 inactive_no_flow_6_10_0_0: flow_6_10_0_0 - 1000 edge_6_10_0_0 <= 0
 inactive_no_flow_8_3_0_0: flow_8_3_0_0 - 1000 edge_8_3_0_0 <= 0
 inactive_no_flow_8_4_0_0: flow_8_4_0_0 - 1000 edge_8_4_0_0 <= 0
 inactive_no_flow_8_5_0_0: flow_8_5_0_0 - 1000 edge_8_5_0_0 <= 0
 inactive_no_flow_8_6_0_0: flow_8_6_0_0 - 1000 edge_8_6_0_0 <= 0
 inactive_no_flow_8_9_0_0: flow_8_9_0_0 - 1000 edge_8_9_0_0 <= 0
 inactive_no_flow_8_10_0_0: flow_8_10_0_0 - 1000 edge_8_10_0_0 <= 0
 inactive_no_flow_8_16_0_0: flow_8_16_0_0 - 1000 edge_8_16_0_0 <= 0
 inactive_no_flow_8_18_0_0: flow_8_18_0_0 - 1000 edge_8_18_0_0 <= 0
 inactive_no_flow_8_19_0_0: flow_8_19_0_0 - 1000 edge_8_19_0_0 <= 0
 inactive_no_flow_8_20_0_0: flow_8_20_0_0 - 1000 edge_8_20_0_0 <= 0
 inactive_no_flow_8_25_0_0: flow_8_25_0_0 - 1000 edge_8_25_0_0 <= 0
 inactive_no_flow_8_29_0_0: flow_8_29_0_0 - 1000 edge_8_29_0_0 <= 0
 inactive_no_flow_8_42_0_0: flow_8_42_0_0 - 1000 edge_8_42_0_0 <= 0
 inactive_no_flow_9_3_0_0: flow_9_3_0_0 - 1000 edge_9_3_0_0 <= 0
 inactive_no_flow_9_8_0_0: flow_9_8_0_0 - 1000 edge_9_8_0_0 <= 0
 inactive_no_flow_9_16_0_0: flow_9_16_0_0 - 1000 edge_9_16_0_0 <= 0
 inactive_no_flow_10_3_0_0: flow_10_3_0_0 - 1000 edge_10_3_0_0 <= 0
 inactive_no_flow_10_4_0_0: flow_10_4_0_0 - 1000 edge_10_4_0_0 <= 0
 inactive_no_flow_10_5_0_0: flow_10_5_0_0 - 1000 edge_10_5_0_0 <= 0
 inactive_no_flow_10_6_0_0: flow_10_6_0_0 - 1000 edge_10_6_0_0 <= 0
 inactive_no_flow_10_8_0_0: flow_10_8_0_0 - 1000 edge_10_8_0_0 <= 0
 inactive_no_flow_10_9_0_0: flow_10_9_0_0 - 1000 edge_10_9_0_0 <= 0
 inactive_no_flow_10_16_0_0: flow_10_16_0_0 - 1000 edge_10_16_0_0 <= 0
 inactive_no_flow_10_18_0_0: flow_10_18_0_0 - 1000 edge_10_18_0_0 <= 0
 inactive_no_flow_10_19_0_0: flow_10_19_0_0 - 1000 edge_10_19_0_0 <= 0
 inactive_no_flow_10_20_0_0: flow_10_20_0_0 - 1000 edge_10_20_0_0 <= 0
 inactive_no_flow_10_25_0_0: flow_10_25_0_0 - 1000 edge_10_25_0_0 <= 0
 inactive_no_flow_10_26_0_0: flow_10_26_0_0 - 1000 edge_10_26_0_0 <= 0
 inactive_no_flow_10_28_0_0: flow_10_28_0_0 - 1000 edge_10_28_0_0 <= 0
 inactive_no_flow_10_35_0_0: flow_10_35_0_0 - 1000 edge_10_35_0_0 <= 0
 inactive_no_flow_10_42_0_0: flow_10_42_0_0 - 1000 edge_10_42_0_0 <= 0
 inactive_no_flow_16_4_0_0: flow_16_4_0_0 - 1000 edge_16_4_0_0 <= 0
 inactive_no_flow_16_5_0_0: flow_16_5_0_0 - 1000 edge_16_5_0_0 <= 0
 inactive_no_flow_16_6_0_0: flow_16_6_0_0 - 1000 edge_16_6_0_0 <= 0
 inactive_no_flow_16_8_0_0: flow_16_8_0_0 - 1000 edge_16_8_0_0 <= 0
 inactive_no_flow_16_9_0_0: flow_16_9_0_0 - 1000 edge_16_9_0_0 <= 0
 inactive_no_flow_16_10_0_0: flow_16_10_0_0 - 1000 edge_16_10_0_0 <= 0
 inactive_no_flow_16_18_0_0: flow_16_18_0_0 - 1000 edge_16_18_0_0 <= 0
 inactive_no_flow_16_19_0_0: flow_16_19_0_0 - 1000 edge_16_19_0_0 <= 0
 inactive_no_flow_16_20_0_0: flow_16_20_0_0 - 1000 edge_16_20_0_0 <= 0
 inactive_no_flow_16_23_0_0: flow_16_23_0_0 - 1000 edge_16_23_0_0 <= 0
 inactive_no_flow_16_25_0_0: flow_16_25_0_0 - 1000 edge_16_25_0_0 <= 0
 inactive_no_flow_16_26_0_0: flow_16_26_0_0 - 1000 edge_16_26_0_0 <= 0
 inactive_no_flow_16_28_0_0: flow_16_28_0_0 - 1000 edge_16_28_0_0 <= 0
 inactive_no_flow_16_29_0_0: flow_16_29_0_0 - 1000 edge_16_29_0_0 <= 0
 inactive_no_flow_16_35_0_0: flow_16_35_0_0 - 1000 edge_16_35_0_0 <= 0
 inactive_no_flow_16_42_0_0: flow_16_42_0_0 - 1000 edge_16_42_0_0 <= 0
 inactive_no_flow_18_9_0_0: flow_18_9_0_0 - 1000 edge_18_9_0_0 <= 0
 inactive_no_flow_18_19_0_0: flow_18_19_0_0 - 1000 edge_18_19_0_0 <= 0
 inactive_no_flow_18_20_0_0: flow_18_20_0_0 - 1000 edge_18_20_0_0 <= 0
 inactive_no_flow_18_23_0_0: flow_18_23_0_0 - 1000 edge_18_23_0_0 <= 0
 inactive_no_flow_18_25_0_0: flow_18_25_0_0 - 1000 edge_18_25_0_0 <= 0
 inactive_no_flow_18_29_0_0: flow_18_29_0_0 - 1000 edge_18_29_0_0 <= 0
 inactive_no_flow_18_42_0_0: flow_18_42_0_0 - 1000 edge_18_42_0_0 <= 0
 inactive_no_flow_19_3_0_0: flow_19_3_0_0 - 1000 edge_19_3_0_0 <= 0
 inactive_no_flow_19_4_0_0: flow_19_4_0_0 - 1000 edge_19_4_0_0 <= 0
 inactive_no_flow_19_5_0_0: flow_19_5_0_0 - 1000 edge_19_5_0_0 <= 0
 inactive_no_flow_19_6_0_0: flow_19_6_0_0 - 1000 edge_19_6_0_0 <= 0
 inactive_no_flow_19_8_0_0: flow_19_8_0_0 - 1000 edge_19_8_0_0 <= 0
 inactive_no_flow_19_9_0_0: flow_19_9_0_0 - 1000 edge_19_9_0_0 <= 0
 inactive_no_flow_19_10_0_0: flow_19_10_0_0 - 1000 edge_19_10_0_0 <= 0
 inactive_no_flow_19_16_0_0: flow_19_16_0_0 - 1000 edge_19_16_0_0 <= 0
 inactive_no_flow_19_18_0_0: flow_19_18_0_0 - 1000 edge_19_18_0_0 <= 0
 inactive_no_flow_19_20_0_0: flow_19_20_0_0 - 1000 edge_19_20_0_0 <= 0
 inactive_no_flow_19_23_0_0: flow_19_23_0_0 - 1000 edge_19_23_0_0 <= 0
 inactive_no_flow_19_25_0_0: flow_19_25_0_0 - 1000 edge_19_25_0_0 <= 0
 inactive_no_flow_19_26_0_0: flow_19_26_0_0 - 1000 edge_19_26_0_0 <= 0
 inactive_no_flow_19_28_0_0: flow_19_28_0_0 - 1000 edge_19_28_0_0 <= 0
 inactive_no_flow_19_29_0_0: flow_19_29_0_0 - 1000 edge_19_29_0_0 <= 0
 inactive_no_flow_19_35_0_0: flow_19_35_0_0 - 1000 edge_19_35_0_0 <= 0
 inactive_no_flow_19_42_0_0: flow_19_42_0_0 - 1000 edge_19_42_0_0 <= 0
 inactive_no_flow_20_18_0_0: flow_20_18_0_0 - 1000 edge_20_18_0_0 <= 0
 inactive_no_flow_20_19_0_0: flow_20_19_0_0 - 1000 edge_20_19_0_0 <= 0
 inactive_no_flow_23_25_0_0: flow_23_25_0_0 - 1000 edge_23_25_0_0 <= 0
 inactive_no_flow_23_26_0_0: flow_23_26_0_0 - 1000 edge_23_26_0_0 <= 0
 inactive_no_flow_23_28_0_0: flow_23_28_0_0 - 1000 edge_23_28_0_0 <= 0
 inactive_no_flow_23_29_0_0: flow_23_29_0_0 - 1000 edge_23_29_0_0 <= 0
 inactive_no_flow_23_35_0_0: flow_23_35_0_0 - 1000 edge_23_35_0_0 <= 0
 inactive_no_flow_25_18_0_0: flow_25_18_0_0 - 1000 edge_25_18_0_0 <= 0
 inactive_no_flow_25_19_0_0: flow_25_19_0_0 - 1000 edge_25_19_0_0 <= 0
 inactive_no_flow_25_20_0_0: flow_25_20_0_0 - 1000 edge_25_20_0_0 <= 0
 inactive_no_flow_25_23_0_0: flow_25_23_0_0 - 1000 edge_25_23_0_0 <= 0
 inactive_no_flow_25_26_0_0: flow_25_26_0_0 - 1000 edge_25_26_0_0 <= 0
 inactive_no_flow_25_28_0_0: flow_25_28_0_0 - 1000 edge_25_28_0_0 <= 0
 inactive_no_flow_25_29_0_0: flow_25_29_0_0 - 1000 edge_25_29_0_0 <= 0
 inactive_no_flow_25_35_0_0: flow_25_35_0_0 - 1000 edge_25_35_0_0 <= 0
 inactive_no_flow_25_42_0_0: flow_25_42_0_0 - 1000 edge_25_42_0_0 <= 0
 inactive_no_flow_26_23_0_0: flow_26_23_0_0 - 1000 edge_26_23_0_0 <= 0
 inactive_no_flow_26_25_0_0: flow_26_25_0_0 - 1000 edge_26_25_0_0 <= 0
 inactive_no_flow_26_35_0_0: flow_26_35_0_0 - 1000 edge_26_35_0_0 <= 0
 inactive_no_flow_28_23_0_0: flow_28_23_0_0 - 1000 edge_28_23_0_0 <= 0
 inactive_no_flow_28_29_0_0: flow_28_29_0_0 - 1000 edge_28_29_0_0 <= 0
 inactive_no_flow_29_23_0_0: flow_29_23_0_0 - 1000 edge_29_23_0_0 <= 0
 inactive_no_flow_29_26_0_0: flow_29_26_0_0 - 1000 edge_29_26_0_0 <= 0
 inactive_no_flow_29_28_0_0: flow_29_28_0_0 - 1000 edge_29_28_0_0 <= 0
 inactive_no_flow_29_35_0_0: flow_29_35_0_0 - 1000 edge_29_35_0_0 <= 0
 inactive_no_flow_29_42_0_0: flow_29_42_0_0 - 1000 edge_29_42_0_0 <= 0
 inactive_no_flow_35_23_0_0: flow_35_23_0_0 - 1000 edge_35_23_0_0 <= 0
 inactive_no_flow_35_26_0_0: flow_35_26_0_0 - 1000 edge_35_26_0_0 <= 0
 inactive_no_flow_42_29_0_0: flow_42_29_0_0 - 1000 edge_42_29_0_0 <= 0
Bounds
Binaries
 edge_0_3_0_0 edge_0_4_0_0 edge_0_5_0_0 edge_0_6_0_0 edge_0_10_0_0
 edge_0_16_0_0 edge_3_4_0_0 edge_3_5_0_0 edge_3_6_0_0 edge_3_8_0_0
 edge_3_9_0_0 edge_3_10_0_0 edge_3_16_0_0 edge_3_18_0_0 edge_3_19_0_0
 edge_3_20_0_0 edge_3_25_0_0 edge_3_26_0_0 edge_3_28_0_0 edge_3_42_0_0
 edge_4_3_0_0 edge_4_5_0_0 edge_4_6_0_0 edge_4_8_0_0 edge_4_9_0_0
 edge_4_10_0_0 edge_4_16_0_0 edge_4_18_0_0 edge_4_25_0_0 edge_4_28_0_0
 edge_4_35_0_0 edge_4_42_0_0 edge_5_3_0_0 edge_5_4_0_0 edge_5_6_0_0
 edge_5_8_0_0 edge_5_10_0_0 edge_5_16_0_0 edge_6_3_0_0 edge_6_4_0_0
 edge_6_5_0_0 edge_6_8_0_0 edge_6_10_0_0 edge_8_3_0_0 edge_8_4_0_0
 edge_8_5_0_0 edge_8_6_0_0 edge_8_9_0_0 edge_8_10_0_0 edge_8_16_0_0
 edge_8_18_0_0 edge_8_19_0_0 edge_8_20_0_0 edge_8_25_0_0 edge_8_29_0_0
 edge_8_42_0_0 edge_9_3_0_0 edge_9_8_0_0 edge_9_16_0_0 edge_10_3_0_0
 edge_10_4_0_0 edge_10_5_0_0 edge_10_6_0_0 edge_10_8_0_0 edge_10_9_0_0
 edge_10_16_0_0 edge_10_18_0_0 edge_10_19_0_0 edge_10_20_0_0 edge_10_25_0_0
 edge_10_26_0_0 edge_10_28_0_0 edge_10_35_0_0 edge_10_42_0_0 edge_16_4_0_0
 edge_16_5_0_0 edge_16_6_0_0 edge_16_8_0_0 edge_16_9_0_0 edge_16_10_0_0
 edge_16_18_0_0 edge_16_19_0_0 edge_16_20_0_0 edge_16_23_0_0 edge_16_25_0_0
 edge_16_26_0_0 edge_16_28_0_0 edge_16_29_0_0 edge_16_35_0_0 edge_16_42_0_0
 edge_18_9_0_0 edge_18_19_0_0 edge_18_20_0_0 edge_18_23_0_0 edge_18_25_0_0
 edge_18_29_0_0 edge_18_42_0_0 edge_19_3_0_0 edge_19_4_0_0 edge_19_5_0_0
 edge_19_6_0_0 edge_19_8_0_0 edge_19_9_0_0 edge_19_10_0_0 edge_19_16_0_0
 edge_19_18_0_0 edge_19_20_0_0 edge_19_23_0_0 edge_19_25_0_0 edge_19_26_0_0
 edge_19_28_0_0 edge_19_29_0_0 edge_19_35_0_0 edge_19_42_0_0 edge_20_18_0_0
 edge_20_19_0_0 edge_23_25_0_0 edge_23_26_0_0 edge_23_28_0_0 edge_23_29_0_0
 edge_23_35_0_0 edge_25_18_0_0 edge_25_19_0_0 edge_25_20_0_0 edge_25_23_0_0
 edge_25_26_0_0 edge_25_28_0_0 edge_25_29_0_0 edge_25_35_0_0 edge_25_42_0_0
 edge_26_23_0_0 edge_26_25_0_0 edge_26_35_0_0 edge_28_23_0_0 edge_28_29_0_0
 edge_29_23_0_0 edge_29_26_0_0 edge_29_28_0_0 edge_29_35_0_0 edge_29_42_0_0
 edge_35_23_0_0 edge_35_26_0_0 edge_42_29_0_0
End
